c nIsolatedPIs 2
c maxPI 30
p cnf 88 175
c gate 31 -11 26 0
-11 -31 0
26 -31 0
11 -26 31 0
c gate 32 10 -25 0
10 -32 0
-25 -32 0
-10 25 32 0
c gate 33 -10 25 0
-10 -33 0
25 -33 0
10 -25 33 0
c gate 34 9 -24 0
9 -34 0
-24 -34 0
-9 24 34 0
c gate 35 -7 22 0
-7 -35 0
22 -35 0
7 -22 35 0
c gate 36 -1 16 0
-1 -36 0
16 -36 0
1 -16 36 0
c gate 37 -35 -36 0
-35 -37 0
-36 -37 0
35 36 37 0
c gate 38 8 -23 0
8 -38 0
-23 -38 0
-8 23 38 0
c gate 39 7 -22 0
7 -39 0
-22 -39 0
-7 22 39 0
c gate 40 -38 -39 0
-38 -40 0
-39 -40 0
38 39 40 0
c gate 41 -37 40 0
-37 -41 0
40 -41 0
37 -40 41 0
c gate 42 -9 24 0
-9 -42 0
24 -42 0
9 -24 42 0
c gate 43 -8 23 0
-8 -43 0
23 -43 0
8 -23 43 0
c gate 44 -42 -43 0
-42 -44 0
-43 -44 0
42 43 44 0
c gate 45 -41 44 0
-41 -45 0
44 -45 0
41 -44 45 0
c gate 46 -34 -45 0
-34 -46 0
-45 -46 0
34 45 46 0
c gate 47 -33 -46 0
-33 -47 0
-46 -47 0
33 46 47 0
c gate 48 -32 -47 0
-32 -48 0
-47 -48 0
32 47 48 0
c gate 49 -31 -48 0
-31 -49 0
-48 -49 0
31 48 49 0
c gate 50 11 -26 0
11 -50 0
-26 -50 0
-11 26 50 0
c gate 51 12 -27 0
12 -51 0
-27 -51 0
-12 27 51 0
c gate 52 -50 -51 0
-50 -52 0
-51 -52 0
50 51 52 0
c gate 53 -49 52 0
-49 -53 0
52 -53 0
49 -52 53 0
c gate 54 -13 28 0
-13 -54 0
28 -54 0
13 -28 54 0
c gate 55 -12 27 0
-12 -55 0
27 -55 0
12 -27 55 0
c gate 56 -54 -55 0
-54 -56 0
-55 -56 0
54 55 56 0
c gate 57 -53 56 0
-53 -57 0
56 -57 0
53 -56 57 0
c gate 58 13 -28 0
13 -58 0
-28 -58 0
-13 28 58 0
c gate 59 14 -29 0
14 -59 0
-29 -59 0
-14 29 59 0
c gate 60 -58 -59 0
-58 -60 0
-59 -60 0
58 59 60 0
c gate 61 -57 60 0
-57 -61 0
60 -61 0
57 -60 61 0
c gate 62 -15 30 0
-15 -62 0
30 -62 0
15 -30 62 0
c gate 63 -14 29 0
-14 -63 0
29 -63 0
14 -29 63 0
c gate 64 -62 -63 0
-62 -64 0
-63 -64 0
62 63 64 0
c gate 65 -61 64 0
-61 -65 0
64 -65 0
61 -64 65 0
c gate 66 15 -30 0
15 -66 0
-30 -66 0
-15 30 66 0
c gate 67 2 -17 0
2 -67 0
-17 -67 0
-2 17 67 0
c gate 68 -66 -67 0
-66 -68 0
-67 -68 0
66 67 68 0
c gate 69 -65 68 0
-65 -69 0
68 -69 0
65 -68 69 0
c gate 70 -3 18 0
-3 -70 0
18 -70 0
3 -18 70 0
c gate 71 -2 17 0
-2 -71 0
17 -71 0
2 -17 71 0
c gate 72 -70 -71 0
-70 -72 0
-71 -72 0
70 71 72 0
c gate 73 -69 72 0
-69 -73 0
72 -73 0
69 -72 73 0
c gate 74 3 -18 0
3 -74 0
-18 -74 0
-3 18 74 0
c gate 75 4 -19 0
4 -75 0
-19 -75 0
-4 19 75 0
c gate 76 -74 -75 0
-74 -76 0
-75 -76 0
74 75 76 0
c gate 77 -73 76 0
-73 -77 0
76 -77 0
73 -76 77 0
c gate 78 -5 20 0
-5 -78 0
20 -78 0
5 -20 78 0
c gate 79 -4 19 0
-4 -79 0
19 -79 0
4 -19 79 0
c gate 80 -78 -79 0
-78 -80 0
-79 -80 0
78 79 80 0
c gate 81 -77 80 0
-77 -81 0
80 -81 0
77 -80 81 0
c gate 82 5 -20 0
5 -82 0
-20 -82 0
-5 20 82 0
c gate 83 6 -21 0
6 -83 0
-21 -83 0
-6 21 83 0
c gate 84 -82 83 0
-82 -84 0
83 -84 0
82 -83 84 0
c gate 85 -81 84 0
-81 -85 0
84 -85 0
81 -84 85 0
c gate 86 -7 16 0
-7 -86 0
16 -86 0
7 -16 86 0
c gate 87 37 86 0
37 -87 0
86 -87 0
-37 -86 87 0
c gate 88 -85 -87 0
-85 -88 0
-87 -88 0
85 87 88 0
c PO
-88 0
